; PUSH cw_1 SWAP3 SWAP1 SWAP3 => SWAP2 PUSH cw_1
(set-option :produce-proofs true)
; 
(set-info :status unknown)
(declare-fun storage_t ((_ BitVec 256) (_ BitVec 256) (_ BitVec 256) (_ BitVec 256) Int (_ BitVec 256)) (_ BitVec 256))
(declare-fun w_1 () (_ BitVec 256))
(declare-fun storage_s ((_ BitVec 256) (_ BitVec 256) (_ BitVec 256) (_ BitVec 256) Int (_ BitVec 256)) (_ BitVec 256))
(declare-fun exc_halt_t (Int) Bool)
(declare-fun exc_halt_s (Int) Bool)
(declare-fun sc_t (Int) (_ BitVec 6))
(declare-fun stack_t ((_ BitVec 256) (_ BitVec 256) (_ BitVec 256) (_ BitVec 256) Int (_ BitVec 6)) (_ BitVec 256))
(declare-fun stack_s ((_ BitVec 256) (_ BitVec 256) (_ BitVec 256) (_ BitVec 256) Int (_ BitVec 6)) (_ BitVec 256))
(declare-fun sc_s (Int) (_ BitVec 6))
(declare-fun used_gas_t ((_ BitVec 256) (_ BitVec 256) (_ BitVec 256) (_ BitVec 256) Int) Int)
(declare-fun used_gas_s ((_ BitVec 256) (_ BitVec 256) (_ BitVec 256) (_ BitVec 256) Int) Int)
(assert
 (exists ((x_0 (_ BitVec 256)) (x_1 (_ BitVec 256)) (x_2 (_ BitVec 256)) )(let (($x1395 (forall ((w (_ BitVec 256)) )(let ((?x7279 (storage_t x_0 x_1 x_2 w_1 2 w)))
 (let ((?x5445 (storage_s x_0 x_1 x_2 w_1 4 w)))
 (= ?x5445 ?x7279))))
 ))
 (let (($x6842 (exc_halt_t 2)))
 (let (($x9175 (exc_halt_s 4)))
 (let (($x4445 (= $x9175 $x6842)))
 (let (($x9705 (forall ((n (_ BitVec 6)) )(let ((?x9666 (sc_t 2)))
 (let (($x6374 (bvsle ?x9666 n)))
 (let ((?x5984 (stack_t x_0 x_1 x_2 w_1 2 n)))
 (let ((?x1807 (stack_s x_0 x_1 x_2 w_1 4 n)))
 (let (($x5306 (= ?x1807 ?x5984)))
 (or $x5306 $x6374)))))))
 ))
 (let ((?x9666 (sc_t 2)))
 (let ((?x9433 (sc_s 4)))
 (let (($x2152 (= ?x9433 ?x9666)))
 (let ((?x1070 (used_gas_t x_0 x_1 x_2 w_1 0)))
 (let ((?x8857 (used_gas_s x_0 x_1 x_2 w_1 0)))
 (let (($x4950 (= ?x8857 ?x1070)))
 (let (($x9488 (forall ((w (_ BitVec 256)) )(let ((?x2181 (storage_t x_0 x_1 x_2 w_1 0 w)))
 (let ((?x3397 (storage_s x_0 x_1 x_2 w_1 0 w)))
 (= ?x3397 ?x2181))))
 ))
 (let (($x56 (exc_halt_t 0)))
 (let (($x57 (exc_halt_s 0)))
 (let (($x58 (= $x57 $x56)))
 (let (($x7861 (forall ((n (_ BitVec 6)) )(let ((?x9070 (stack_t x_0 x_1 x_2 w_1 0 n)))
 (let ((?x8722 (stack_s x_0 x_1 x_2 w_1 0 n)))
 (let (($x8382 (= ?x8722 ?x9070)))
 (let ((?x63 (sc_t 0)))
 (let (($x3918 (bvsle ?x63 n)))
 (or $x3918 $x8382)))))))
 ))
 (let ((?x63 (sc_t 0)))
 (let ((?x72 (sc_s 0)))
 (let (($x73 (= ?x72 ?x63)))
 (let (($x8403 (not (= ((_ extract 6 6) (bvadd (_ bv1 7) (concat (_ bv0 1) (sc_t 1)))) (_ bv0 1)))))
 (let (($x11030 (exc_halt_t 1)))
 (let (($x6419 (= $x6842 (or $x11030 $x8403))))
 (let (($x9974 (forall ((w (_ BitVec 256)) )(let ((?x4763 (storage_t x_0 x_1 x_2 w_1 1 w)))
 (let ((?x7279 (storage_t x_0 x_1 x_2 w_1 2 w)))
 (= ?x7279 ?x4763))))
 ))
 (let (($x4173 (forall ((n (_ BitVec 6)) )(let ((?x7692 (stack_t x_0 x_1 x_2 w_1 1 n)))
 (let ((?x5984 (stack_t x_0 x_1 x_2 w_1 2 n)))
 (let (($x5889 (= ?x5984 ?x7692)))
 (let ((?x4135 (sc_t 1)))
 (let (($x3402 (bvsle ?x4135 n)))
 (or $x3402 $x5889)))))))
 ))
 (let (($x9818 (= ?x9666 (bvadd (_ bv1 6) (sc_t 1)))))
 (let ((?x646 (used_gas_t x_0 x_1 x_2 w_1 2)))
 (let (($x4154 (= ?x646 (+ 3 (used_gas_t x_0 x_1 x_2 w_1 1)))))
 (let (($x2990 (forall ((w (_ BitVec 256)) )(let ((?x2181 (storage_t x_0 x_1 x_2 w_1 0 w)))
 (let ((?x4763 (storage_t x_0 x_1 x_2 w_1 1 w)))
 (= ?x4763 ?x2181))))
 ))
 (let (($x1882 (forall ((n (_ BitVec 6)) )(let ((?x9070 (stack_t x_0 x_1 x_2 w_1 0 n)))
 (let ((?x7692 (stack_t x_0 x_1 x_2 w_1 1 n)))
 (let (($x9531 (= ?x7692 ?x9070)))
 (or $x9531 (bvsle (bvadd (_ bv61 6) (sc_t 0)) n))))))
 ))
 (let ((?x4135 (sc_t 1)))
 (let (($x2586 (= ?x4135 ?x63)))
 (let ((?x7280 (used_gas_t x_0 x_1 x_2 w_1 1)))
 (let (($x11818 (= ?x7280 (+ 3 ?x1070))))
 (let ((?x11941 (bvadd (_ bv62 6) ?x4135)))
 (let ((?x10628 (stack_t x_0 x_1 x_2 w_1 1 ?x11941)))
 (let ((?x1165 (bvadd (_ bv61 6) ?x4135)))
 (let ((?x11292 (stack_t x_0 x_1 x_2 w_1 1 ?x1165)))
 (let ((?x7017 (bvadd (_ bv63 6) ?x4135)))
 (let ((?x5701 (stack_t x_0 x_1 x_2 w_1 1 ?x7017)))
 (let (($x10570 (= $x9175 (or (exc_halt_s 3) (not (bvsle (_ bv0 6) (bvadd (_ bv60 6) (sc_s 3))))))))
 (let (($x10642 (forall ((w (_ BitVec 256)) )(let ((?x1155 (storage_s x_0 x_1 x_2 w_1 3 w)))
 (let ((?x5445 (storage_s x_0 x_1 x_2 w_1 4 w)))
 (= ?x5445 ?x1155))))
 ))
 (let (($x9300 (forall ((n (_ BitVec 6)) )(let ((?x4215 (stack_s x_0 x_1 x_2 w_1 3 n)))
 (let ((?x1807 (stack_s x_0 x_1 x_2 w_1 4 n)))
 (let (($x6614 (= ?x1807 ?x4215)))
 (or (bvsle (bvadd (_ bv60 6) (sc_s 3)) n) $x6614)))))
 ))
 (let ((?x3851 (sc_s 3)))
 (let (($x7570 (= ?x9433 ?x3851)))
 (let ((?x7322 (used_gas_s x_0 x_1 x_2 w_1 4)))
 (let (($x2320 (= ?x7322 (+ 3 (used_gas_s x_0 x_1 x_2 w_1 3)))))
 (let ((?x6235 (bvadd (_ bv62 6) ?x3851)))
 (let ((?x1591 (stack_s x_0 x_1 x_2 w_1 3 ?x6235)))
 (let ((?x4876 (bvadd (_ bv62 6) ?x9433)))
 (let ((?x5972 (stack_s x_0 x_1 x_2 w_1 4 ?x4876)))
 (let ((?x4610 (bvadd (_ bv61 6) ?x9433)))
 (let ((?x11121 (stack_s x_0 x_1 x_2 w_1 4 ?x4610)))
 (let ((?x9078 (bvadd (_ bv63 6) ?x3851)))
 (let ((?x4258 (stack_s x_0 x_1 x_2 w_1 3 ?x9078)))
 (let ((?x1442 (bvadd (_ bv60 6) ?x9433)))
 (let ((?x10049 (stack_s x_0 x_1 x_2 w_1 4 ?x1442)))
 (let ((?x11263 (bvadd (_ bv63 6) ?x9433)))
 (let ((?x10494 (stack_s x_0 x_1 x_2 w_1 4 ?x11263)))
 (let (($x8103 (exc_halt_s 3)))
 (let (($x9650 (= $x8103 (or (exc_halt_s 2) (not (bvsle (_ bv0 6) (bvadd (_ bv62 6) (sc_s 2))))))))
 (let (($x6723 (forall ((w (_ BitVec 256)) )(let ((?x3801 (storage_s x_0 x_1 x_2 w_1 2 w)))
 (let ((?x1155 (storage_s x_0 x_1 x_2 w_1 3 w)))
 (= ?x1155 ?x3801))))
 ))
 (let (($x9278 (forall ((n (_ BitVec 6)) )(let ((?x6532 (stack_s x_0 x_1 x_2 w_1 2 n)))
 (let ((?x4215 (stack_s x_0 x_1 x_2 w_1 3 n)))
 (let (($x4385 (= ?x4215 ?x6532)))
 (let ((?x2272 (sc_s 2)))
 (let ((?x5352 (bvadd (_ bv62 6) ?x2272)))
 (let (($x3489 (bvsle ?x5352 n)))
 (or $x3489 $x4385))))))))
 ))
 (let ((?x2272 (sc_s 2)))
 (let (($x599 (= ?x3851 ?x2272)))
 (let ((?x1820 (used_gas_s x_0 x_1 x_2 w_1 3)))
 (let (($x11124 (= ?x1820 (+ 3 (used_gas_s x_0 x_1 x_2 w_1 2)))))
 (let (($x10052 (exc_halt_s 2)))
 (let (($x2100 (= $x10052 (or (exc_halt_s 1) (not (bvsle (_ bv0 6) (bvadd (_ bv60 6) (sc_s 1))))))))
 (let (($x5217 (forall ((w (_ BitVec 256)) )(let ((?x6791 (storage_s x_0 x_1 x_2 w_1 1 w)))
 (let ((?x3801 (storage_s x_0 x_1 x_2 w_1 2 w)))
 (= ?x3801 ?x6791))))
 ))
 (let (($x8677 (forall ((n (_ BitVec 6)) )(let ((?x1464 (stack_s x_0 x_1 x_2 w_1 1 n)))
 (let ((?x6532 (stack_s x_0 x_1 x_2 w_1 2 n)))
 (let (($x5712 (= ?x6532 ?x1464)))
 (or $x5712 (bvsle (bvadd (_ bv60 6) (sc_s 1)) n))))))
 ))
 (let ((?x154 (sc_s 1)))
 (let (($x6737 (= ?x2272 ?x154)))
 (let ((?x11897 (used_gas_s x_0 x_1 x_2 w_1 2)))
 (let ((?x5352 (bvadd (_ bv62 6) ?x2272)))
 (let ((?x1076 (stack_s x_0 x_1 x_2 w_1 2 ?x5352)))
 (let (($x4689 (= (stack_s x_0 x_1 x_2 w_1 2 (bvadd (_ bv61 6) ?x2272)) (stack_s x_0 x_1 x_2 w_1 1 (bvadd (_ bv61 6) ?x154)))))
 (let ((?x7184 (bvadd (_ bv63 6) ?x154)))
 (let ((?x3462 (stack_s x_0 x_1 x_2 w_1 1 ?x7184)))
 (let ((?x3887 (bvadd (_ bv63 6) ?x2272)))
 (let ((?x7331 (stack_s x_0 x_1 x_2 w_1 2 ?x3887)))
 (let (($x8780 (exc_halt_s 1)))
 (let (($x11279 (= $x8780 (or $x57 (not (= ((_ extract 6 6) (bvadd (_ bv1 7) (concat (_ bv0 1) ?x72))) (_ bv0 1)))))))
 (let (($x5496 (forall ((w (_ BitVec 256)) )(let ((?x3397 (storage_s x_0 x_1 x_2 w_1 0 w)))
 (let ((?x6791 (storage_s x_0 x_1 x_2 w_1 1 w)))
 (= ?x6791 ?x3397))))
 ))
 (let (($x890 (forall ((n (_ BitVec 6)) )(let ((?x72 (sc_s 0)))
 (let (($x5715 (bvsle ?x72 n)))
 (let ((?x8722 (stack_s x_0 x_1 x_2 w_1 0 n)))
 (let ((?x1464 (stack_s x_0 x_1 x_2 w_1 1 n)))
 (let (($x476 (= ?x1464 ?x8722)))
 (or $x476 $x5715)))))))
 ))
 (let (($x11116 (= ?x154 (bvadd (_ bv1 6) ?x72))))
 (let ((?x7155 (used_gas_s x_0 x_1 x_2 w_1 1)))
 (let (($x8391 (= ?x7155 (+ 3 ?x8857))))
 (let (($x1542 (forall ((w (_ BitVec 256)) )(let ((?x3397 (storage_s x_0 x_1 x_2 w_1 0 w)))
 (= ?x3397 (_ bv0 256))))
 ))
 (let (($x11282 (= ?x8857 0)))
 (let (($x2113 (not $x57)))
 (let (($x8208 (= (stack_s x_0 x_1 x_2 w_1 0 (_ bv2 6)) x_2)))
 (let (($x9167 (= (stack_s x_0 x_1 x_2 w_1 0 (_ bv1 6)) x_1)))
 (let (($x11343 (= (stack_s x_0 x_1 x_2 w_1 0 (_ bv0 6)) x_0)))
 (let (($x9108 (= ?x72 (_ bv3 6))))
 (and $x9108 $x11343 $x9167 $x8208 $x2113 $x11282 $x1542 (= (stack_s x_0 x_1 x_2 w_1 1 ?x72) w_1) $x8391 $x11116 $x890 $x5496 $x11279 (= ?x7331 (stack_s x_0 x_1 x_2 w_1 1 (bvadd (_ bv60 6) ?x154))) (= (stack_s x_0 x_1 x_2 w_1 2 (bvadd (_ bv60 6) ?x2272)) ?x3462) $x4689 (= ?x1076 (stack_s x_0 x_1 x_2 w_1 1 (bvadd (_ bv62 6) ?x154))) (= ?x11897 (+ 3 ?x7155)) $x6737 $x8677 $x5217 $x2100 (= ?x4258 ?x1076) (= ?x1591 ?x7331) $x11124 $x599 $x9278 $x6723 $x9650 (= ?x10494 (stack_s x_0 x_1 x_2 w_1 3 (bvadd (_ bv60 6) ?x3851))) (= ?x10049 ?x4258) (= ?x11121 (stack_s x_0 x_1 x_2 w_1 3 (bvadd (_ bv61 6) ?x3851))) (= ?x5972 ?x1591) $x2320 $x7570 $x9300 $x10642 $x10570 (= ?x5701 (stack_t x_0 x_1 x_2 w_1 0 (bvadd (_ bv61 6) ?x63))) (= ?x11292 (stack_t x_0 x_1 x_2 w_1 0 (bvadd (_ bv63 6) ?x63))) (= ?x10628 (stack_t x_0 x_1 x_2 w_1 0 (bvadd (_ bv62 6) ?x63))) $x11818 $x2586 $x1882 $x2990 (= $x11030 (or $x56 (not (bvsle (_ bv0 6) (bvadd (_ bv61 6) ?x63))))) (= (stack_t x_0 x_1 x_2 w_1 2 ?x4135) w_1) $x4154 $x9818 $x4173 $x9974 $x6419 $x73 $x7861 $x58 $x9488 $x4950 (not (and $x2152 $x9705 $x4445 $x1395))))))))))))))))))))))))))))))))))))))))))))))))))))))))))))))))))))))))))))))))))))))))))))))))))
 )
(check-sat)
(get-proof)
